120
1000
200
200
200
197
197
197
197
197
196
196
196
196
196
196
194
194
194
193
193
193
192
192
191
191
191
191
190
190
190
190
189
189
189
189
189
188
187
187
186
186
186
185
185
185
185
185
184
183
183
182
182
182
182
180
179
179
177
177
176
176
175
175
175
174
174
173
172
171
171
171
170
170
168
167
166
166
166
166
166
165
165
165
164
164
164
164
163
163
161
161
160
160
160
158
158
157
157
157
157
156
156
156
156
156
156
156
155
155
154
154
154
154
153
153
153
153
152
152
150
150
